p td 1000 2390 
64 8
64 19
64 20
64 24
64 28
64 37
64 38
64 42
64 43
64 49
64 65
64 79
64 80
64 83
64 85
64 89
64 96
64 103
64 104
64 105
64 106
64 108
64 113
64 115
64 117
64 122
64 128
64 137
64 148
64 152
64 156
64 162
64 170
64 171
64 182
64 188
64 193
64 197
64 203
64 205
64 222
64 232
64 234
64 244
64 247
64 248
64 253
64 261
64 263
64 264
64 267
64 271
64 277
64 287
64 288
64 298
64 309
64 313
64 318
64 321
64 322
64 328
64 332
64 337
64 341
64 346
64 347
64 353
64 354
64 356
64 366
64 370
64 375
64 381
64 389
64 390
64 391
64 403
64 408
64 409
64 416
64 418
64 426
64 429
64 430
64 435
64 439
64 440
64 451
64 460
64 462
64 474
64 481
64 488
64 493
64 500
64 511
64 512
64 513
64 518
64 519
64 525
64 526
64 529
64 536
64 547
64 548
64 549
64 555
64 562
64 566
64 570
64 571
64 581
64 584
64 587
64 593
64 595
64 600
64 601
64 605
64 606
64 609
64 617
64 628
64 640
64 645
64 654
64 659
64 661
64 663
64 665
64 671
64 674
64 676
64 677
64 684
64 691
64 696
64 697
64 704
64 709
64 719
64 721
64 726
64 740
64 749
64 750
64 761
64 768
64 779
64 785
64 786
64 795
64 804
64 813
64 821
64 824
64 834
64 837
64 838
64 843
64 844
64 846
64 849
64 854
64 855
64 871
64 873
64 877
64 891
64 901
64 908
64 912
64 915
64 921
64 922
64 923
64 925
64 934
64 949
64 952
64 953
64 959
64 967
64 972
64 977
64 978
64 981
64 988
64 999
651 6
651 16
651 19
651 20
651 21
651 23
651 29
651 32
651 35
651 42
651 46
651 52
651 72
651 76
651 77
651 78
651 79
651 88
651 105
651 128
651 132
651 143
651 144
651 148
651 156
651 164
651 167
651 168
651 175
651 181
651 185
651 190
651 196
651 199
651 203
651 210
651 214
651 215
651 217
651 225
651 228
651 234
651 235
651 237
651 249
651 250
651 256
651 261
651 263
651 265
651 269
651 271
651 272
651 273
651 274
651 286
651 290
651 291
651 294
651 300
651 308
651 309
651 315
651 326
651 335
651 336
651 345
651 349
651 352
651 353
651 356
651 357
651 359
651 364
651 377
651 383
651 396
651 402
651 404
651 408
651 411
651 417
651 429
651 442
651 449
651 450
651 458
651 460
651 461
651 469
651 472
651 479
651 486
651 489
651 497
651 502
651 511
651 513
651 521
651 524
651 529
651 537
651 553
651 559
651 560
651 561
651 562
651 564
651 574
651 582
651 585
651 597
651 609
651 612
651 613
651 628
651 643
651 644
651 665
651 670
651 676
651 679
651 687
651 692
651 697
651 702
651 705
651 713
651 714
651 716
651 722
651 723
651 730
651 739
651 740
651 743
651 745
651 747
651 748
651 752
651 756
651 766
651 769
651 770
651 773
651 774
651 785
651 789
651 790
651 795
651 798
651 804
651 812
651 815
651 828
651 832
651 833
651 834
651 835
651 838
651 841
651 845
651 850
651 853
651 855
651 863
651 865
651 879
651 881
651 882
651 889
651 891
651 893
651 899
651 900
651 902
651 904
651 908
651 909
651 917
651 925
651 926
651 932
651 933
651 934
651 940
651 941
651 943
651 957
651 958
651 975
651 978
651 979
651 982
651 983
651 988
651 999
809 6
809 9
809 12
809 13
809 21
809 25
809 29
809 30
809 34
809 38
809 39
809 43
809 45
809 47
809 52
809 56
809 59
809 61
809 71
809 72
809 74
809 78
809 91
809 103
809 104
809 106
809 111
809 113
809 127
809 131
809 138
809 141
809 142
809 144
809 154
809 161
809 164
809 172
809 182
809 186
809 189
809 194
809 195
809 207
809 211
809 212
809 214
809 223
809 224
809 225
809 229
809 235
809 246
809 251
809 256
809 257
809 260
809 264
809 266
809 276
809 285
809 290
809 301
809 304
809 305
809 306
809 307
809 310
809 312
809 315
809 317
809 341
809 342
809 344
809 346
809 350
809 355
809 358
809 374
809 377
809 379
809 382
809 386
809 393
809 401
809 402
809 409
809 410
809 411
809 415
809 416
809 422
809 429
809 436
809 437
809 441
809 446
809 451
809 453
809 455
809 457
809 466
809 476
809 484
809 486
809 488
809 498
809 500
809 506
809 508
809 517
809 523
809 527
809 535
809 539
809 540
809 541
809 542
809 546
809 559
809 564
809 574
809 577
809 580
809 582
809 598
809 613
809 616
809 622
809 623
809 638
809 639
809 646
809 647
809 648
809 669
809 674
809 683
809 690
809 692
809 694
809 695
809 697
809 701
809 703
809 710
809 711
809 716
809 717
809 725
809 732
809 735
809 748
809 753
809 757
809 776
809 786
809 822
809 824
809 844
809 848
809 850
809 853
809 854
809 855
809 864
809 870
809 872
809 873
809 878
809 880
809 885
809 889
809 897
809 900
809 903
809 905
809 907
809 910
809 912
809 915
809 917
809 921
809 939
809 943
809 944
809 955
809 956
809 973
809 976
809 980
809 991
679 17
679 20
679 21
679 24
679 29
679 39
679 42
679 50
679 55
679 60
679 61
679 64
679 65
679 68
679 71
679 72
679 78
679 79
679 81
679 85
679 88
679 89
679 91
679 94
679 95
679 100
679 101
679 110
679 114
679 131
679 133
679 138
679 139
679 142
679 149
679 150
679 153
679 158
679 159
679 165
679 167
679 170
679 172
679 182
679 196
679 202
679 219
679 221
679 227
679 230
679 245
679 247
679 261
679 262
679 270
679 281
679 297
679 298
679 299
679 300
679 312
679 315
679 316
679 326
679 328
679 329
679 331
679 333
679 336
679 337
679 338
679 339
679 344
679 348
679 359
679 369
679 370
679 378
679 380
679 385
679 391
679 392
679 395
679 396
679 398
679 399
679 401
679 433
679 435
679 440
679 454
679 455
679 458
679 462
679 472
679 478
679 487
679 492
679 493
679 503
679 509
679 516
679 521
679 527
679 530
679 539
679 546
679 548
679 556
679 559
679 565
679 567
679 568
679 573
679 587
679 588
679 589
679 592
679 597
679 600
679 603
679 611
679 634
679 640
679 655
679 667
679 668
679 671
679 678
679 679
679 680
679 687
679 701
679 706
679 709
679 710
679 712
679 713
679 716
679 721
679 731
679 742
679 746
679 748
679 752
679 755
679 759
679 766
679 769
679 771
679 779
679 781
679 801
679 804
679 806
679 815
679 819
679 825
679 838
679 840
679 849
679 852
679 856
679 859
679 863
679 866
679 867
679 869
679 875
679 883
679 886
679 887
679 888
679 892
679 895
679 896
679 902
679 904
679 909
679 910
679 922
679 923
679 932
679 934
679 935
679 939
679 943
679 945
679 954
679 961
679 969
679 972
679 977
679 978
679 981
679 982
679 983
679 984
679 987
679 992
679 994
650 10
650 14
650 16
650 18
650 20
650 23
650 31
650 36
650 41
650 43
650 44
650 49
650 65
650 77
650 83
650 84
650 89
650 91
650 94
650 96
650 104
650 105
650 118
650 120
650 124
650 130
650 131
650 133
650 148
650 154
650 157
650 165
650 166
650 170
650 175
650 180
650 181
650 184
650 186
650 188
650 189
650 209
650 211
650 214
650 248
650 251
650 259
650 262
650 268
650 277
650 278
650 279
650 280
650 282
650 288
650 290
650 297
650 300
650 302
650 306
650 307
650 309
650 310
650 311
650 314
650 317
650 337
650 341
650 342
650 348
650 354
650 355
650 368
650 375
650 379
650 386
650 408
650 414
650 417
650 419
650 423
650 424
650 426
650 427
650 429
650 431
650 435
650 437
650 439
650 440
650 441
650 451
650 454
650 464
650 465
650 472
650 473
650 481
650 483
650 487
650 494
650 500
650 508
650 512
650 515
650 536
650 538
650 542
650 544
650 549
650 551
650 552
650 569
650 571
650 572
650 574
650 581
650 583
650 586
650 592
650 597
650 600
650 602
650 607
650 613
650 614
650 624
650 627
650 629
650 631
650 634
650 638
650 644
650 648
650 653
650 657
650 666
650 674
650 683
650 694
650 701
650 707
650 719
650 722
650 737
650 746
650 747
650 748
650 749
650 750
650 763
650 764
650 767
650 771
650 772
650 776
650 781
650 787
650 795
650 805
650 809
650 810
650 814
650 818
650 822
650 836
650 841
650 842
650 849
650 852
650 859
650 863
650 864
650 867
650 868
650 871
650 873
650 876
650 880
650 882
650 883
650 885
650 896
650 907
650 910
650 911
650 928
650 932
650 934
650 935
650 936
650 939
650 951
650 956
650 963
650 967
650 969
650 970
650 971
650 989
650 991
650 994
87 6
87 9
87 11
87 19
87 28
87 30
87 33
87 35
87 43
87 44
87 65
87 77
87 80
87 83
87 86
87 89
87 90
87 96
87 102
87 104
87 106
87 115
87 117
87 120
87 135
87 138
87 141
87 149
87 153
87 157
87 159
87 166
87 168
87 179
87 180
87 188
87 189
87 190
87 193
87 194
87 195
87 203
87 207
87 220
87 228
87 233
87 241
87 242
87 243
87 248
87 250
87 260
87 265
87 273
87 284
87 289
87 291
87 306
87 308
87 310
87 316
87 326
87 327
87 329
87 332
87 333
87 334
87 338
87 339
87 350
87 353
87 368
87 370
87 372
87 375
87 378
87 380
87 383
87 389
87 394
87 397
87 398
87 402
87 404
87 409
87 410
87 421
87 431
87 433
87 434
87 435
87 438
87 448
87 450
87 453
87 461
87 466
87 470
87 471
87 478
87 490
87 491
87 493
87 495
87 496
87 504
87 506
87 508
87 509
87 511
87 517
87 525
87 529
87 530
87 532
87 536
87 541
87 542
87 543
87 546
87 547
87 549
87 550
87 551
87 567
87 571
87 586
87 593
87 600
87 609
87 623
87 627
87 635
87 648
87 651
87 652
87 660
87 665
87 676
87 678
87 679
87 682
87 686
87 690
87 694
87 710
87 713
87 718
87 721
87 723
87 731
87 739
87 744
87 747
87 748
87 752
87 756
87 762
87 766
87 768
87 769
87 779
87 782
87 785
87 787
87 789
87 793
87 795
87 813
87 814
87 818
87 830
87 832
87 836
87 839
87 840
87 848
87 849
87 862
87 872
87 882
87 883
87 898
87 902
87 913
87 915
87 921
87 933
87 935
87 939
87 944
87 958
87 961
87 963
87 964
87 969
87 971
87 972
87 975
87 977
87 980
87 981
87 985
87 988
87 992
87 993
87 998
604 11
604 14
604 16
604 19
604 23
604 25
604 28
604 32
604 36
604 44
604 50
604 51
604 54
604 57
604 61
604 63
604 68
604 69
604 70
604 71
604 73
604 75
604 86
604 90
604 99
604 102
604 108
604 121
604 143
604 147
604 148
604 157
604 164
604 165
604 174
604 181
604 182
604 194
604 198
604 200
604 216
604 217
604 220
604 232
604 247
604 252
604 253
604 257
604 259
604 262
604 269
604 270
604 282
604 288
604 290
604 297
604 299
604 301
604 311
604 312
604 314
604 329
604 330
604 336
604 361
604 368
604 371
604 372
604 373
604 383
604 387
604 389
604 391
604 396
604 398
604 408
604 412
604 414
604 417
604 422
604 423
604 425
604 432
604 434
604 436
604 438
604 439
604 440
604 449
604 455
604 459
604 464
604 466
604 468
604 474
604 476
604 478
604 486
604 499
604 501
604 510
604 530
604 531
604 532
604 536
604 541
604 545
604 546
604 556
604 559
604 571
604 579
604 590
604 597
604 600
604 602
604 604
604 623
604 624
604 630
604 647
604 653
604 668
604 699
604 702
604 707
604 715
604 716
604 722
604 724
604 725
604 731
604 733
604 735
604 743
604 748
604 752
604 765
604 766
604 769
604 781
604 783
604 788
604 803
604 804
604 818
604 822
604 825
604 827
604 830
604 832
604 839
604 841
604 844
604 846
604 856
604 860
604 861
604 863
604 864
604 865
604 870
604 873
604 891
604 892
604 896
604 897
604 903
604 913
604 923
604 932
604 934
604 942
604 956
604 958
604 975
604 976
604 986
604 991
604 995
604 998
277 8
277 10
277 12
277 15
277 18
277 19
277 29
277 30
277 38
277 39
277 48
277 52
277 55
277 57
277 62
277 66
277 68
277 69
277 73
277 76
277 77
277 78
277 79
277 80
277 82
277 87
277 88
277 92
277 94
277 97
277 100
277 112
277 113
277 114
277 115
277 116
277 120
277 124
277 125
277 128
277 130
277 133
277 141
277 142
277 145
277 146
277 147
277 149
277 151
277 156
277 173
277 178
277 180
277 186
277 202
277 209
277 213
277 216
277 225
277 233
277 234
277 236
277 242
277 253
277 257
277 259
277 260
277 264
277 265
277 266
277 267
277 275
277 278
277 279
277 283
277 284
277 288
277 291
277 292
277 293
277 296
277 303
277 304
277 307
277 313
277 314
277 316
277 318
277 327
277 333
277 335
277 337
277 344
277 349
277 362
277 375
277 379
277 380
277 382
277 383
277 389
277 407
277 415
277 425
277 427
277 432
277 433
277 445
277 458
277 459
277 467
277 472
277 474
277 478
277 480
277 483
277 494
277 496
277 499
277 502
277 508
277 512
277 519
277 526
277 530
277 533
277 534
277 537
277 546
277 555
277 557
277 566
277 567
277 569
277 579
277 591
277 596
277 599
277 603
277 604
277 611
277 621
277 627
277 628
277 630
277 632
277 638
277 639
277 640
277 650
277 652
277 655
277 659
277 671
277 674
277 676
277 678
277 683
277 685
277 691
277 692
277 695
277 699
277 705
277 708
277 709
277 716
277 722
277 723
277 730
277 732
277 735
277 744
277 751
277 752
277 762
277 763
277 769
277 772
277 775
277 779
277 780
277 782
277 783
277 787
277 791
277 793
277 798
277 800
277 803
277 806
277 812
277 815
277 822
277 824
277 830
277 831
277 833
277 862
277 864
277 867
277 869
277 885
277 904
277 905
277 913
277 914
277 921
277 922
277 944
277 947
277 956
277 964
277 965
277 979
277 980
277 984
277 987
277 988
277 997
340 13
340 16
340 18
340 29
340 30
340 33
340 38
340 43
340 49
340 71
340 75
340 82
340 90
340 96
340 101
340 103
340 105
340 111
340 116
340 117
340 122
340 124
340 126
340 127
340 130
340 141
340 142
340 164
340 165
340 168
340 172
340 179
340 180
340 183
340 191
340 193
340 203
340 206
340 214
340 224
340 242
340 243
340 244
340 251
340 253
340 254
340 256
340 260
340 263
340 265
340 285
340 287
340 292
340 295
340 308
340 309
340 310
340 316
340 331
340 333
340 344
340 345
340 348
340 350
340 353
340 355
340 360
340 361
340 367
340 371
340 380
340 385
340 386
340 389
340 394
340 401
340 413
340 416
340 418
340 420
340 422
340 424
340 426
340 427
340 428
340 452
340 453
340 457
340 459
340 471
340 478
340 483
340 487
340 491
340 511
340 514
340 515
340 516
340 517
340 518
340 521
340 525
340 530
340 533
340 547
340 550
340 554
340 555
340 557
340 561
340 565
340 577
340 582
340 584
340 596
340 609
340 610
340 612
340 614
340 623
340 632
340 633
340 640
340 658
340 659
340 670
340 674
340 679
340 688
340 690
340 691
340 698
340 703
340 704
340 707
340 710
340 713
340 720
340 727
340 732
340 735
340 737
340 738
340 748
340 754
340 756
340 757
340 765
340 772
340 776
340 788
340 792
340 796
340 803
340 810
340 813
340 814
340 817
340 830
340 834
340 845
340 847
340 849
340 850
340 851
340 852
340 856
340 864
340 867
340 871
340 873
340 880
340 882
340 884
340 890
340 894
340 898
340 902
340 907
340 908
340 911
340 918
340 924
340 931
340 934
340 941
340 948
340 951
340 959
340 973
340 974
340 975
340 978
340 980
340 985
340 995
340 999
329 23
329 25
329 27
329 36
329 40
329 41
329 46
329 52
329 56
329 59
329 62
329 71
329 77
329 86
329 91
329 93
329 106
329 108
329 109
329 117
329 134
329 140
329 149
329 150
329 151
329 152
329 160
329 163
329 164
329 166
329 170
329 178
329 183
329 187
329 195
329 196
329 201
329 203
329 204
329 207
329 209
329 219
329 231
329 235
329 239
329 243
329 250
329 257
329 261
329 264
329 265
329 266
329 274
329 278
329 279
329 280
329 283
329 290
329 299
329 300
329 302
329 308
329 319
329 322
329 323
329 334
329 339
329 340
329 357
329 358
329 373
329 385
329 387
329 390
329 394
329 398
329 399
329 400
329 409
329 418
329 423
329 424
329 428
329 436
329 437
329 440
329 442
329 449
329 450
329 465
329 466
329 468
329 471
329 476
329 487
329 491
329 498
329 501
329 505
329 506
329 508
329 515
329 516
329 517
329 535
329 536
329 537
329 539
329 551
329 559
329 563
329 566
329 568
329 569
329 572
329 575
329 586
329 590
329 593
329 596
329 598
329 604
329 614
329 616
329 622
329 626
329 628
329 649
329 677
329 678
329 679
329 687
329 692
329 693
329 701
329 708
329 722
329 730
329 735
329 736
329 740
329 747
329 748
329 753
329 759
329 776
329 777
329 781
329 783
329 790
329 801
329 809
329 811
329 812
329 816
329 818
329 820
329 832
329 833
329 834
329 836
329 839
329 843
329 844
329 848
329 862
329 864
329 872
329 873
329 875
329 880
329 884
329 887
329 893
329 895
329 900
329 907
329 908
329 915
329 918
329 922
329 937
329 940
329 944
329 946
329 954
329 957
329 964
329 966
329 968
329 975
329 984
329 987
329 989
329 992
435 11
435 19
435 20
435 26
435 36
435 44
435 49
435 51
435 52
435 55
435 56
435 57
435 59
435 62
435 63
435 64
435 66
435 68
435 69
435 80
435 86
435 88
435 92
435 94
435 102
435 105
435 107
435 110
435 116
435 119
435 121
435 124
435 128
435 135
435 149
435 151
435 153
435 157
435 158
435 162
435 163
435 177
435 186
435 187
435 190
435 200
435 214
435 215
435 223
435 230
435 236
435 243
435 258
435 263
435 264
435 265
435 266
435 269
435 272
435 273
435 277
435 284
435 290
435 298
435 300
435 309
435 311
435 317
435 324
435 325
435 328
435 330
435 333
435 334
435 351
435 356
435 360
435 373
435 374
435 380
435 385
435 386
435 390
435 391
435 392
435 398
435 400
435 401
435 409
435 412
435 413
435 414
435 415
435 432
435 437
435 445
435 447
435 459
435 465
435 469
435 481
435 483
435 486
435 497
435 504
435 505
435 507
435 510
435 514
435 525
435 528
435 540
435 546
435 547
435 551
435 561
435 563
435 564
435 568
435 570
435 578
435 579
435 580
435 581
435 590
435 595
435 597
435 598
435 599
435 604
435 607
435 617
435 619
435 620
435 624
435 628
435 630
435 634
435 638
435 645
435 647
435 648
435 651
435 654
435 656
435 657
435 660
435 662
435 665
435 669
435 670
435 674
435 684
435 685
435 691
435 692
435 700
435 704
435 709
435 710
435 711
435 720
435 725
435 732
435 745
435 747
435 753
435 762
435 763
435 765
435 768
435 769
435 771
435 777
435 780
435 783
435 788
435 792
435 796
435 798
435 803
435 810
435 813
435 823
435 828
435 834
435 837
435 843
435 845
435 847
435 851
435 856
435 859
435 867
435 871
435 872
435 873
435 874
435 876
435 883
435 886
435 898
435 902
435 909
435 917
435 931
435 937
435 955
435 959
435 961
435 970
435 979
435 981
435 984
435 985
435 989
962 15
962 20
962 25
962 28
962 29
962 33
962 34
962 40
962 49
962 52
962 55
962 56
962 59
962 62
962 63
962 69
962 70
962 71
962 75
962 79
962 81
962 88
962 95
962 96
962 100
962 101
962 111
962 112
962 122
962 127
962 128
962 135
962 136
962 142
962 146
962 148
962 154
962 156
962 185
962 188
962 192
962 202
962 206
962 210
962 218
962 222
962 228
962 231
962 237
962 238
962 240
962 241
962 243
962 250
962 257
962 266
962 270
962 278
962 279
962 288
962 289
962 290
962 293
962 300
962 304
962 316
962 320
962 327
962 337
962 338
962 345
962 346
962 353
962 358
962 361
962 379
962 385
962 387
962 390
962 398
962 401
962 406
962 407
962 432
962 437
962 445
962 448
962 456
962 457
962 458
962 461
962 463
962 467
962 468
962 471
962 475
962 483
962 485
962 493
962 507
962 525
962 527
962 535
962 539
962 542
962 553
962 560
962 561
962 563
962 566
962 567
962 568
962 571
962 575
962 576
962 578
962 585
962 589
962 593
962 596
962 602
962 605
962 611
962 618
962 626
962 631
962 638
962 645
962 655
962 664
962 667
962 674
962 680
962 688
962 692
962 697
962 700
962 701
962 705
962 714
962 724
962 732
962 733
962 735
962 736
962 737
962 740
962 741
962 749
962 763
962 771
962 772
962 778
962 783
962 790
962 791
962 810
962 813
962 823
962 833
962 834
962 835
962 837
962 845
962 851
962 862
962 869
962 873
962 877
962 879
962 882
962 883
962 898
962 899
962 918
962 919
962 924
962 927
962 929
962 934
962 938
962 942
962 943
962 950
962 959
962 963
962 971
962 978
962 987
962 991
962 998
